TCS_Benchmarks/redos_fix/snort1_output_distinct_2398_2397_32_0.txt
([^\n\r]*)(\s+)
([^\n\r]*)([eE][fF][eE][rR][rR][oO][rR]\s+[iI][nN][tT][eE][rR][nN][eE][tT]\s+[cC][oO][nN][nN][eE][cC][tT][iI][oO][nN])(\s+)